p cnf 110 258
c 14 select(1,4)
c 15 nots(1,4)
c 16 select(1,5)
c 17 nots(1,5)
c 18 reach(5)
c 19 reach(4)
c 20 select(4,1)
c 21 nots(4,1)
c 22 select(5,1)
c 23 nots(5,1)
c 24 select(5,4)
c 25 nots(5,4)
c 26 select(4,5)
c 27 nots(4,5)
c 28 select(5,8)
c 29 nots(5,8)
c 30 reach(8)
c 31 select(8,2)
c 32 nots(8,2)
c 33 select(8,5)
c 34 nots(8,5)
c 35 reach(2)
c 36 select(2,8)
c 37 nots(2,8)
c 38 select(2,3)
c 39 nots(2,3)
c 40 reach(3)
c 41 select(3,2)
c 42 nots(3,2)
c 43 select(3,9)
c 44 nots(3,9)
c 45 select(3,6)
c 46 nots(3,6)
c 47 select(3,7)
c 48 nots(3,7)
c 49 reach(7)
c 50 reach(6)
c 51 reach(9)
c 52 select(9,3)
c 53 nots(9,3)
c 54 select(9,7)
c 55 nots(9,7)
c 56 select(6,3)
c 57 nots(6,3)
c 58 select(7,3)
c 59 nots(7,3)
c 60 select(7,6)
c 61 nots(7,6)
c 62 select(6,7)
c 63 nots(6,7)
c 64 select(7,9)
c 65 nots(7,9)
c 76 edge(1,4)
c 77 edge(1,5)
c 78 edge(2,8)
c 79 edge(2,3)
c 80 edge(3,9)
c 81 edge(3,6)
c 82 edge(3,7)
c 83 edge(4,5)
c 84 edge(5,8)
c 85 edge(6,7)
c 86 edge(7,9)
c 87 reach(1)
c 88 goal(9)
14 15 0
-14 -15 0
16 17 0
-16 -17 0
89 -16 0
-89 16 0
90 -14 0
-90 14 0
20 -19 21 0
-20 19 0
-20 -21 0
22 -18 23 0
-22 18 0
-22 -23 0
24 -18 25 0
-24 18 0
-24 -25 0
26 -19 27 0
-26 19 0
-26 -27 0
28 -18 29 0
-28 18 0
-28 -29 0
91 -28 0
-91 28 0
92 -26 0
-92 26 0
93 -24 0
-93 24 0
31 -30 32 0
-31 30 0
-31 -32 0
33 -30 34 0
-33 30 0
-33 -34 0
94 -33 0
-94 33 0
95 -31 0
-95 31 0
36 -35 37 0
-36 35 0
-36 -37 0
38 -35 39 0
-38 35 0
-38 -39 0
96 -38 0
-96 38 0
97 -36 0
-97 36 0
41 -40 42 0
-41 40 0
-41 -42 0
43 -40 44 0
-43 40 0
-43 -44 0
45 -40 46 0
-45 40 0
-45 -46 0
47 -40 48 0
-47 40 0
-47 -48 0
98 -47 0
-98 47 0
99 -45 0
-99 45 0
100 -43 0
-100 43 0
101 -41 0
-101 41 0
52 -51 53 0
-52 51 0
-52 -53 0
54 -51 55 0
-54 51 0
-54 -55 0
56 -50 57 0
-56 50 0
-56 -57 0
58 -49 59 0
-58 49 0
-58 -59 0
60 -49 61 0
-60 49 0
-60 -61 0
62 -50 63 0
-62 50 0
-62 -63 0
64 -49 65 0
-64 49 0
-64 -65 0
102 -64 0
-102 64 0
103 -62 0
-103 62 0
104 -60 0
-104 60 0
105 -58 0
-105 58 0
106 -56 0
-106 56 0
107 -54 0
-107 54 0
108 -52 0
-108 52 0
21 -19 20 0
-21 19 0
-21 -20 0
23 -18 22 0
-23 18 0
-23 -22 0
32 -30 31 0
-32 30 0
-32 -31 0
42 -40 41 0
-42 40 0
-42 -41 0
53 -51 52 0
-53 51 0
-53 -52 0
57 -50 56 0
-57 50 0
-57 -56 0
59 -49 58 0
-59 49 0
-59 -58 0
25 -18 24 0
-25 18 0
-25 -24 0
34 -30 33 0
-34 30 0
-34 -33 0
61 -49 60 0
-61 49 0
-61 -60 0
55 -51 54 0
-55 51 0
-55 -54 0
15 14 0
-15 -14 0
17 16 0
-17 -16 0
37 -35 36 0
-37 35 0
-37 -36 0
39 -35 38 0
-39 35 0
-39 -38 0
44 -40 43 0
-44 40 0
-44 -43 0
46 -40 45 0
-46 40 0
-46 -45 0
48 -40 47 0
-48 40 0
-48 -47 0
27 -19 26 0
-27 19 0
-27 -26 0
29 -18 28 0
-29 18 0
-29 -28 0
63 -50 62 0
-63 50 0
-63 -62 0
65 -49 64 0
-65 49 0
-65 -64 0
109 -52 0
-109 52 0
110 -54 0
-110 54 0
51 0
-72 0
-16 -14 0
-24 -22 -18 0
-26 -20 -19 0
-28 -22 -18 0
-28 -24 -18 0
-33 -31 -30 0
-36 -38 -35 0
-43 -41 -40 0
-43 -45 -40 0
-43 -47 -40 0
-45 -41 -40 0
-47 -41 -40 0
-47 -45 -40 0
-54 -52 -51 0
-60 -58 -49 0
-62 -56 -50 0
-64 -58 -49 0
-64 -60 -49 0
76 0
77 0
78 0
79 0
80 0
81 0
82 0
83 0
84 0
85 0
86 0
87 0
88 0
-1 0
-2 0
-3 0
-4 0
-5 0
-6 0
-7 0
-8 0
-9 0
-10 0
-11 0
-12 0
-13 0
-18 89 92 94 0
18 -89 0
18 -92 0
18 -94 0
-19 90 93 0
19 -90 0
19 -93 0
-30 91 97 0
30 -91 0
30 -97 0
-35 95 101 0
35 -95 0
35 -101 0
-40 96 105 106 108 0
40 -96 0
40 -105 0
40 -106 0
40 -108 0
-49 98 103 107 0
49 -98 0
49 -103 0
49 -107 0
-50 99 104 0
50 -99 0
50 -104 0
-51 100 102 0
51 -100 0
51 -102 0
-66 0
-67 0
-68 0
-69 0
-70 0
-71 0
-72 109 110 0
72 -109 0
72 -110 0
-73 0
-74 0
-75 0
